2000	50	0,6	0,15	4,21595120	282
2000	50	0,6	0,15	4,05891040	308
2000	50	0,6	0,15	5,13688360	282
2000	50	0,6	0,15	4,92321030	282
2000	50	0,6	0,15	5,06336370	282
2000	50	0,6	0,15	4,35444730	282
2000	50	0,6	0,15	4,54055740	282
2000	50	0,6	0,15	4,05753750	282
2000	50	0,6	0,15	3,98731990	282
2000	50	0,6	0,15	3,99909610	282
